sing20220208.12
TTAA  58111 48698
99018 28256 06007 00195 26443 00508 92878 21229 36016
85611 18243 02014 70243 08632 05521 50596 05925 10025
40767 15556 11023 30979 30730 10523 25105 41525 11023
20252 54750 10023 15430 69757 09535 10660 80557 10558
88110 83756 10578
77107 11082 42568=
TTCC  58115 48698
70867 70763 26521 50065 72363 19014
88999
77999=
TTDD  5811/ 48698
11901 80757 22858 73962 33749 70363 44631 73762 55524 71564
66478 73762
21212 11925 11023 22818 04002 33812 33502 44808 26002 55800
24504 66775 23008 77744 26512 88668 26023 99571 27014 11536
24016 22499 18514 33478 12510=
